n=30;
m=25;
Ba=4.544933;
Bp=1.413333;
Ha=[[3.000000,0.050000,0.050000,0.050000,0.050000,0.050000,0.050000,0.050000,0.050000,0.050000,0.050000,0.050000,0.050000,0.050000,0.050000,0.050000,0.050000,0.050000,0.050000,0.050000,0.050000,0.050000,0.050000,0.050000,0.050000,0.000000,0.000000,0.000000,0.000000,0.000000],[3.000000,0.050000,0.050000,0.050000,0.050000,0.050000,0.050000,0.050000,0.050000,0.050000,0.050000,0.050000,0.050000,0.050000,0.050000,0.050000,0.050000,0.050000,0.050000,0.050000,0.050000,0.050000,0.050000,0.050000,0.050000,0.000000,0.000000,0.000000,0.000000,0.000000],[3.000000,0.050000,0.050000,0.050000,0.050000,0.050000,0.050000,0.050000,0.050000,0.050000,0.050000,13.600000,13.600000,13.600000,13.600000,13.600000,13.600000,13.600000,13.600000,13.600000,0.050000,0.050000,0.050000,0.050000,0.050000,0.000000,0.000000,0.000000,0.000000,0.000000],[3.000000,0.050000,0.050000,0.050000,0.050000,0.050000,0.050000,0.050000,0.050000,0.050000,0.050000,13.600000,13.600000,13.600000,13.600000,13.600000,13.600000,13.600000,13.600000,13.600000,0.050000,0.050000,0.050000,0.050000,0.050000,0.000000,0.000000,0.000000,0.000000,0.000000],[3.000000,0.050000,0.050000,0.050000,0.050000,0.050000,0.050000,0.050000,0.050000,0.050000,0.050000,13.600000,13.600000,13.600000,13.600000,13.600000,13.600000,13.600000,13.600000,13.600000,0.050000,0.050000,0.050000,0.050000,0.050000,0.000000,0.000000,0.000000,0.000000,0.000000],[3.000000,0.050000,0.050000,0.050000,0.050000,0.050000,0.050000,0.050000,0.050000,0.050000,0.050000,0.050000,0.050000,0.050000,0.050000,0.050000,0.050000,0.050000,0.050000,0.050000,0.050000,0.050000,0.050000,0.050000,0.050000,0.000000,0.000000,0.000000,0.000000,0.000000],[3.000000,0.050000,0.050000,0.050000,0.050000,0.050000,0.050000,0.050000,0.050000,0.300000,0.300000,0.300000,0.300000,0.300000,0.300000,0.300000,0.300000,0.300000,0.050000,0.050000,0.050000,0.050000,0.050000,0.050000,0.050000,0.000000,0.000000,0.000000,0.000000,0.000000],[3.000000,0.050000,0.050000,0.050000,0.050000,0.050000,0.050000,0.050000,0.050000,0.300000,0.300000,0.300000,0.300000,0.300000,0.300000,0.300000,0.300000,0.300000,0.050000,0.050000,0.050000,0.050000,0.050000,0.050000,0.050000,0.000000,0.000000,0.000000,0.000000,0.000000],[3.000000,0.050000,0.050000,0.050000,0.050000,0.050000,0.050000,0.050000,0.050000,0.300000,0.300000,0.300000,0.300000,0.300000,0.300000,0.300000,0.300000,0.300000,0.050000,0.050000,0.050000,1.300000,1.300000,1.300000,0.050000,0.000000,0.000000,0.000000,0.000000,0.000000],[3.000000,0.050000,0.050000,0.050000,0.050000,0.050000,0.050000,0.050000,0.050000,0.300000,0.300000,0.300000,0.300000,0.300000,0.300000,0.300000,0.300000,0.300000,0.050000,0.050000,0.050000,1.300000,1.300000,1.300000,0.050000,0.000000,0.000000,0.000000,0.000000,0.000000],[3.000000,0.050000,0.050000,0.050000,0.050000,0.050000,0.050000,0.050000,0.050000,0.300000,0.300000,0.300000,0.300000,0.300000,0.300000,0.300000,0.300000,0.300000,0.050000,0.050000,0.050000,1.300000,1.300000,1.300000,0.050000,0.000000,0.000000,0.000000,0.000000,0.000000],[3.000000,0.050000,0.050000,0.050000,0.050000,0.050000,0.050000,0.050000,0.050000,0.050000,0.050000,0.050000,0.050000,0.050000,0.050000,0.050000,0.050000,0.050000,0.050000,0.050000,0.050000,1.300000,1.300000,1.300000,0.050000,0.000000,0.000000,0.000000,0.000000,0.000000],[3.000000,0.050000,0.050000,0.050000,0.050000,0.050000,0.050000,0.050000,0.050000,0.050000,0.050000,0.050000,0.050000,0.050000,0.050000,0.050000,0.050000,0.050000,0.050000,0.050000,0.050000,1.300000,1.300000,1.300000,0.050000,0.000000,0.000000,0.000000,0.000000,0.000000],[0.000000,0.050000,0.050000,0.050000,0.050000,0.050000,0.050000,0.050000,0.050000,0.050000,0.050000,0.050000,0.050000,0.050000,0.050000,0.050000,0.050000,0.050000,0.050000,0.050000,0.050000,1.300000,1.300000,1.300000,0.050000,0.000000,0.000000,0.000000,0.000000,0.000000],[0.000000,0.050000,0.050000,0.050000,0.050000,0.050000,0.050000,0.050000,0.050000,0.050000,0.050000,0.050000,0.050000,0.050000,0.050000,0.050000,0.050000,0.050000,0.050000,0.050000,0.050000,1.300000,1.300000,1.300000,0.050000,0.000000,0.000000,0.000000,0.000000,0.000000],[0.000000,0.050000,0.050000,0.050000,0.050000,0.050000,0.050000,0.050000,0.050000,0.050000,0.050000,0.050000,0.050000,0.050000,0.050000,0.050000,0.050000,0.050000,0.050000,0.050000,0.050000,0.050000,0.050000,0.050000,0.050000,0.000000,0.000000,0.000000,0.000000,0.000000],[0.000000,0.050000,0.050000,0.050000,0.050000,0.050000,0.050000,0.050000,0.050000,0.050000,0.050000,0.050000,0.050000,0.050000,0.050000,0.050000,0.050000,0.050000,0.050000,0.050000,0.050000,0.050000,0.050000,0.050000,0.050000,0.000000,0.000000,0.000000,0.000000,0.000000],[0.000000,0.050000,0.050000,0.050000,0.050000,0.050000,0.050000,0.050000,0.050000,0.050000,0.050000,0.050000,0.050000,0.050000,0.050000,0.050000,0.050000,0.050000,0.050000,0.050000,0.050000,0.050000,0.050000,0.050000,0.050000,0.000000,0.000000,0.000000,0.000000,0.000000],[0.000000,0.050000,0.050000,0.050000,0.050000,0.050000,0.050000,0.050000,0.050000,0.050000,0.050000,0.050000,0.050000,0.050000,0.050000,0.050000,0.050000,0.050000,0.050000,0.050000,0.050000,0.050000,0.050000,0.050000,0.050000,0.000000,0.000000,0.000000,0.000000,0.000000],[0.000000,0.000000,0.000000,0.000000,0.000000,0.000000,0.000000,0.000000,0.000000,0.000000,0.000000,0.000000,0.000000,0.000000,0.000000,0.000000,0.000000,0.050000,0.050000,0.050000,0.050000,0.050000,0.050000,0.050000,0.050000,0.000000,0.000000,0.000000,0.000000,0.000000],[0.000000,0.000000,0.000000,0.000000,0.000000,0.000000,0.000000,0.000000,0.000000,0.000000,0.000000,0.000000,0.000000,0.000000,0.000000,0.000000,0.000000,0.050000,0.050000,0.050000,0.050000,0.050000,0.050000,0.050000,0.050000,0.000000,0.000000,0.000000,0.000000,0.000000],[0.000000,0.000000,0.000000,0.000000,0.000000,0.000000,0.000000,0.000000,0.000000,0.000000,0.000000,0.000000,0.000000,0.000000,0.000000,0.000000,0.000000,0.050000,0.050000,0.050000,0.050000,0.050000,0.050000,0.050000,0.050000,0.000000,0.000000,0.000000,0.000000,0.000000],[0.000000,0.000000,0.000000,0.000000,0.000000,0.000000,0.000000,0.000000,0.000000,0.000000,0.000000,0.000000,0.000000,0.000000,0.000000,0.000000,0.000000,0.050000,0.050000,0.050000,0.050000,0.050000,0.050000,0.050000,0.050000,0.000000,0.000000,0.000000,0.000000,0.000000],[0.000000,0.000000,0.000000,0.000000,0.000000,0.000000,0.000000,0.000000,0.000000,0.000000,0.000000,0.000000,0.000000,0.000000,0.000000,0.000000,0.000000,0.050000,0.050000,0.050000,0.050000,0.050000,0.050000,0.050000,0.050000,0.000000,0.000000,0.000000,0.000000,0.000000],[0.000000,0.000000,0.000000,0.000000,0.000000,0.000000,0.000000,0.000000,0.000000,0.000000,0.000000,0.000000,0.000000,0.000000,0.000000,0.000000,0.000000,0.050000,0.050000,0.050000,0.050000,0.050000,0.050000,0.050000,0.050000,0.000000,0.000000,0.000000,0.000000,0.000000]];
Ca=[[0.365000,0.750000,0.750000,0.750000,0.750000,0.750000,0.750000,0.750000,0.750000,0.750000,0.750000,0.750000,0.750000,0.750000,0.750000,0.750000,0.750000,0.750000,0.750000,0.750000,0.750000,0.750000,0.750000,0.750000,0.750000,0.000000,0.000000,0.000000,0.000000,0.000000],[0.365000,0.750000,0.750000,0.750000,0.750000,0.750000,0.750000,0.750000,0.750000,0.750000,0.750000,0.750000,0.750000,0.750000,0.750000,0.750000,0.750000,0.750000,0.750000,0.750000,0.750000,0.750000,0.750000,0.750000,0.750000,0.000000,0.000000,0.000000,0.000000,0.000000],[0.365000,0.750000,0.750000,0.750000,0.750000,0.750000,0.750000,0.750000,0.750000,0.750000,0.750000,0.125000,0.125000,0.125000,0.125000,0.125000,0.125000,0.125000,0.125000,0.125000,0.750000,0.750000,0.750000,0.750000,0.750000,0.000000,0.000000,0.000000,0.000000,0.000000],[0.365000,0.750000,0.750000,0.750000,0.750000,0.750000,0.750000,0.750000,0.750000,0.750000,0.750000,0.125000,0.125000,0.125000,0.125000,0.125000,0.125000,0.125000,0.125000,0.125000,0.750000,0.750000,0.750000,0.750000,0.750000,0.000000,0.000000,0.000000,0.000000,0.000000],[0.365000,0.750000,0.750000,0.750000,0.750000,0.750000,0.750000,0.750000,0.750000,0.750000,0.750000,0.125000,0.125000,0.125000,0.125000,0.125000,0.125000,0.125000,0.125000,0.125000,0.750000,0.750000,0.750000,0.750000,0.750000,0.000000,0.000000,0.000000,0.000000,0.000000],[0.365000,0.750000,0.750000,0.750000,0.750000,0.750000,0.750000,0.750000,0.750000,0.750000,0.750000,0.750000,0.750000,0.750000,0.750000,0.750000,0.750000,0.750000,0.750000,0.750000,0.750000,0.750000,0.750000,0.750000,0.750000,0.000000,0.000000,0.000000,0.000000,0.000000],[0.365000,0.750000,0.750000,0.750000,0.750000,0.750000,0.750000,0.750000,0.750000,0.670000,0.670000,0.670000,0.670000,0.670000,0.670000,0.670000,0.670000,0.670000,0.750000,0.750000,0.750000,0.750000,0.750000,0.750000,0.750000,0.000000,0.000000,0.000000,0.000000,0.000000],[0.365000,0.750000,0.750000,0.750000,0.750000,0.750000,0.750000,0.750000,0.750000,0.670000,0.670000,0.670000,0.670000,0.670000,0.670000,0.670000,0.670000,0.670000,0.750000,0.750000,0.750000,0.750000,0.750000,0.750000,0.750000,0.000000,0.000000,0.000000,0.000000,0.000000],[0.365000,0.750000,0.750000,0.750000,0.750000,0.750000,0.750000,0.750000,0.750000,0.670000,0.670000,0.670000,0.670000,0.670000,0.670000,0.670000,0.670000,0.670000,0.750000,0.750000,0.750000,0.500000,0.500000,0.500000,0.750000,0.000000,0.000000,0.000000,0.000000,0.000000],[0.365000,0.750000,0.750000,0.750000,0.750000,0.750000,0.750000,0.750000,0.750000,0.670000,0.670000,0.670000,0.670000,0.670000,0.670000,0.670000,0.670000,0.670000,0.750000,0.750000,0.750000,0.500000,0.500000,0.500000,0.750000,0.000000,0.000000,0.000000,0.000000,0.000000],[0.365000,0.750000,0.750000,0.750000,0.750000,0.750000,0.750000,0.750000,0.750000,0.670000,0.670000,0.670000,0.670000,0.670000,0.670000,0.670000,0.670000,0.670000,0.750000,0.750000,0.750000,0.500000,0.500000,0.500000,0.750000,0.000000,0.000000,0.000000,0.000000,0.000000],[0.365000,0.750000,0.750000,0.750000,0.750000,0.750000,0.750000,0.750000,0.750000,0.750000,0.750000,0.750000,0.750000,0.750000,0.750000,0.750000,0.750000,0.750000,0.750000,0.750000,0.750000,0.500000,0.500000,0.500000,0.750000,0.000000,0.000000,0.000000,0.000000,0.000000],[0.365000,0.750000,0.750000,0.750000,0.750000,0.750000,0.750000,0.750000,0.750000,0.750000,0.750000,0.750000,0.750000,0.750000,0.750000,0.750000,0.750000,0.750000,0.750000,0.750000,0.750000,0.500000,0.500000,0.500000,0.750000,0.000000,0.000000,0.000000,0.000000,0.000000],[1500.000000,0.750000,0.750000,0.750000,0.750000,0.750000,0.750000,0.750000,0.750000,0.750000,0.750000,0.750000,0.750000,0.750000,0.750000,0.750000,0.750000,0.750000,0.750000,0.750000,0.750000,0.500000,0.500000,0.500000,0.750000,0.000000,0.000000,0.000000,0.000000,0.000000],[1500.000000,0.750000,0.750000,0.750000,0.750000,0.750000,0.750000,0.750000,0.750000,0.750000,0.750000,0.750000,0.750000,0.750000,0.750000,0.750000,0.750000,0.750000,0.750000,0.750000,0.750000,0.500000,0.500000,0.500000,0.750000,0.000000,0.000000,0.000000,0.000000,0.000000],[1500.000000,0.750000,0.750000,0.750000,0.750000,0.750000,0.750000,0.750000,0.750000,0.750000,0.750000,0.750000,0.750000,0.750000,0.750000,0.750000,0.750000,0.750000,0.750000,0.750000,0.750000,0.750000,0.750000,0.750000,0.750000,0.000000,0.000000,0.000000,0.000000,0.000000],[1500.000000,0.750000,0.750000,0.750000,0.750000,0.750000,0.750000,0.750000,0.750000,0.750000,0.750000,0.750000,0.750000,0.750000,0.750000,0.750000,0.750000,0.750000,0.750000,0.750000,0.750000,0.750000,0.750000,0.750000,0.750000,0.000000,0.000000,0.000000,0.000000,0.000000],[1500.000000,0.750000,0.750000,0.750000,0.750000,0.750000,0.750000,0.750000,0.750000,0.750000,0.750000,0.750000,0.750000,0.750000,0.750000,0.750000,0.750000,0.750000,0.750000,0.750000,0.750000,0.750000,0.750000,0.750000,0.750000,0.000000,0.000000,0.000000,0.000000,0.000000],[1500.000000,0.750000,0.750000,0.750000,0.750000,0.750000,0.750000,0.750000,0.750000,0.750000,0.750000,0.750000,0.750000,0.750000,0.750000,0.750000,0.750000,0.750000,0.750000,0.750000,0.750000,0.750000,0.750000,0.750000,0.750000,0.000000,0.000000,0.000000,0.000000,0.000000],[1500.000000,1500.000000,1500.000000,1500.000000,1500.000000,1500.000000,1500.000000,1500.000000,1500.000000,1500.000000,1500.000000,1500.000000,1500.000000,1500.000000,1500.000000,1500.000000,1500.000000,0.750000,0.750000,0.750000,0.750000,0.750000,0.750000,0.750000,0.750000,0.000000,0.000000,0.000000,0.000000,0.000000],[1500.000000,1500.000000,1500.000000,1500.000000,1500.000000,1500.000000,1500.000000,1500.000000,1500.000000,1500.000000,1500.000000,1500.000000,1500.000000,1500.000000,1500.000000,1500.000000,1500.000000,0.750000,0.750000,0.750000,0.750000,0.750000,0.750000,0.750000,0.750000,0.000000,0.000000,0.000000,0.000000,0.000000],[1500.000000,1500.000000,1500.000000,1500.000000,1500.000000,1500.000000,1500.000000,1500.000000,1500.000000,1500.000000,1500.000000,1500.000000,1500.000000,1500.000000,1500.000000,1500.000000,1500.000000,0.750000,0.750000,0.750000,0.750000,0.750000,0.750000,0.750000,0.750000,0.000000,0.000000,0.000000,0.000000,0.000000],[1500.000000,1500.000000,1500.000000,1500.000000,1500.000000,1500.000000,1500.000000,1500.000000,1500.000000,1500.000000,1500.000000,1500.000000,1500.000000,1500.000000,1500.000000,1500.000000,1500.000000,0.750000,0.750000,0.750000,0.750000,0.750000,0.750000,0.750000,0.750000,0.000000,0.000000,0.000000,0.000000,0.000000],[1500.000000,1500.000000,1500.000000,1500.000000,1500.000000,1500.000000,1500.000000,1500.000000,1500.000000,1500.000000,1500.000000,1500.000000,1500.000000,1500.000000,1500.000000,1500.000000,1500.000000,0.750000,0.750000,0.750000,0.750000,0.750000,0.750000,0.750000,0.750000,0.000000,0.000000,0.000000,0.000000,0.000000],[1500.000000,1500.000000,1500.000000,1500.000000,1500.000000,1500.000000,1500.000000,1500.000000,1500.000000,1500.000000,1500.000000,1500.000000,1500.000000,1500.000000,1500.000000,1500.000000,1500.000000,0.750000,0.750000,0.750000,0.750000,0.750000,0.750000,0.750000,0.750000,0.000000,0.000000,0.000000,0.000000,0.000000]];
Hp=[[3.000000,0.050000,0.050000,0.050000,0.050000,0.050000,0.050000,0.050000,0.050000,0.050000,0.050000,0.050000,0.050000,0.050000,0.050000,0.050000,0.050000,0.050000,0.050000,0.050000,0.050000,0.050000,0.050000,0.050000,0.050000,0.000000,0.000000,0.000000,0.000000,0.000000],[3.000000,0.050000,0.050000,0.050000,0.050000,0.050000,0.050000,0.050000,0.050000,0.050000,0.050000,0.050000,0.050000,0.050000,0.050000,0.050000,0.050000,0.050000,0.050000,0.050000,0.050000,0.050000,0.050000,0.050000,0.050000,0.000000,0.000000,0.000000,0.000000,0.000000],[3.000000,0.050000,0.050000,0.050000,0.050000,0.050000,0.050000,0.050000,0.050000,0.050000,0.050000,13.600000,13.600000,13.600000,13.600000,13.600000,13.600000,13.600000,13.600000,13.600000,0.050000,0.050000,0.050000,0.050000,0.050000,0.000000,0.000000,0.000000,0.000000,0.000000],[3.000000,0.050000,0.050000,0.050000,0.050000,0.050000,0.050000,0.050000,0.050000,0.050000,0.050000,13.600000,13.600000,13.600000,13.600000,13.600000,13.600000,13.600000,13.600000,13.600000,0.050000,0.050000,0.050000,0.050000,0.050000,0.000000,0.000000,0.000000,0.000000,0.000000],[3.000000,0.050000,0.050000,0.050000,0.050000,0.050000,0.050000,0.050000,0.050000,0.050000,0.050000,13.600000,13.600000,13.600000,13.600000,13.600000,13.600000,13.600000,13.600000,13.600000,0.050000,0.050000,0.050000,0.050000,0.050000,0.000000,0.000000,0.000000,0.000000,0.000000],[3.000000,0.050000,0.050000,0.050000,0.050000,0.050000,0.050000,0.050000,0.050000,0.050000,0.050000,0.050000,0.050000,0.050000,0.050000,0.050000,0.050000,0.050000,0.050000,0.050000,0.050000,0.050000,0.050000,0.050000,0.050000,0.000000,0.000000,0.000000,0.000000,0.000000],[3.000000,0.050000,0.050000,0.050000,0.050000,0.050000,0.050000,0.050000,0.050000,0.300000,0.300000,0.300000,0.300000,0.300000,0.300000,0.300000,0.300000,0.300000,0.050000,0.050000,0.050000,0.050000,0.050000,0.050000,0.050000,0.000000,0.000000,0.000000,0.000000,0.000000],[3.000000,0.050000,0.050000,0.050000,0.050000,0.050000,0.050000,0.050000,0.050000,0.300000,0.300000,0.300000,0.300000,0.300000,0.300000,0.300000,0.300000,0.300000,0.050000,0.050000,0.050000,0.050000,0.050000,0.050000,0.050000,0.000000,0.000000,0.000000,0.000000,0.000000],[3.000000,0.050000,0.050000,0.050000,0.050000,0.050000,0.050000,0.050000,0.050000,0.300000,0.300000,0.300000,0.300000,0.300000,0.300000,0.300000,0.300000,0.300000,0.050000,0.050000,0.050000,1.300000,1.300000,1.300000,0.050000,0.000000,0.000000,0.000000,0.000000,0.000000],[3.000000,0.050000,0.050000,0.050000,0.050000,0.050000,0.050000,0.050000,0.050000,0.300000,0.300000,0.300000,0.300000,0.300000,0.300000,0.300000,0.300000,0.300000,0.050000,0.050000,0.050000,1.300000,1.300000,1.300000,0.050000,0.000000,0.000000,0.000000,0.000000,0.000000],[3.000000,0.050000,0.050000,0.050000,0.050000,0.050000,0.050000,0.050000,0.050000,0.300000,0.300000,0.300000,0.300000,0.300000,0.300000,0.300000,0.300000,0.300000,0.050000,0.050000,0.050000,1.300000,1.300000,1.300000,0.050000,0.000000,0.000000,0.000000,0.000000,0.000000],[3.000000,0.050000,0.050000,0.050000,0.050000,0.050000,0.050000,0.050000,0.050000,0.050000,0.050000,0.050000,0.050000,0.050000,0.050000,0.050000,0.050000,0.050000,0.050000,0.050000,0.050000,1.300000,1.300000,1.300000,0.050000,0.000000,0.000000,0.000000,0.000000,0.000000],[3.000000,0.050000,0.050000,0.050000,0.050000,0.050000,0.050000,0.050000,0.050000,0.050000,0.050000,0.050000,0.050000,0.050000,0.050000,0.050000,0.050000,0.050000,0.050000,0.050000,0.050000,1.300000,1.300000,1.300000,0.050000,0.000000,0.000000,0.000000,0.000000,0.000000],[0.000000,0.050000,0.050000,0.050000,0.050000,0.050000,0.050000,0.050000,0.050000,0.050000,0.050000,0.050000,0.050000,0.050000,0.050000,0.050000,0.050000,0.050000,0.050000,0.050000,0.050000,1.300000,1.300000,1.300000,0.050000,0.000000,0.000000,0.000000,0.000000,0.000000],[0.000000,0.050000,0.050000,0.050000,0.050000,0.050000,0.050000,0.050000,0.050000,0.050000,0.050000,0.050000,0.050000,0.050000,0.050000,0.050000,0.050000,0.050000,0.050000,0.050000,0.050000,1.300000,1.300000,1.300000,0.050000,0.000000,0.000000,0.000000,0.000000,0.000000],[0.000000,0.050000,0.050000,0.050000,0.050000,0.050000,0.050000,0.050000,0.050000,0.050000,0.050000,0.050000,0.050000,0.050000,0.050000,0.050000,0.050000,0.050000,0.050000,0.050000,0.050000,0.050000,0.050000,0.050000,0.050000,0.000000,0.000000,0.000000,0.000000,0.000000],[0.000000,0.050000,0.050000,0.050000,0.050000,0.050000,0.050000,0.050000,0.050000,0.050000,0.050000,0.050000,0.050000,0.050000,0.050000,0.050000,0.050000,0.050000,0.050000,0.050000,0.050000,0.050000,0.050000,0.050000,0.050000,0.000000,0.000000,0.000000,0.000000,0.000000],[0.000000,0.050000,0.050000,0.050000,0.050000,0.050000,0.050000,0.050000,0.050000,0.050000,0.050000,0.050000,0.050000,0.050000,0.050000,0.050000,0.050000,0.050000,0.050000,0.050000,0.050000,0.050000,0.050000,0.050000,0.050000,0.000000,0.000000,0.000000,0.000000,0.000000],[0.000000,0.050000,0.050000,0.050000,0.050000,0.050000,0.050000,0.050000,0.050000,0.050000,0.050000,0.050000,0.050000,0.050000,0.050000,0.050000,0.050000,0.050000,0.050000,0.050000,0.050000,0.050000,0.050000,0.050000,0.050000,0.000000,0.000000,0.000000,0.000000,0.000000],[0.000000,0.000000,0.000000,0.000000,0.000000,0.000000,0.000000,0.000000,0.000000,0.000000,0.000000,0.000000,0.000000,0.000000,0.000000,0.000000,0.000000,0.050000,0.050000,0.050000,0.050000,0.050000,0.050000,0.050000,0.050000,0.000000,0.000000,0.000000,0.000000,0.000000],[0.000000,0.000000,0.000000,0.000000,0.000000,0.000000,0.000000,0.000000,0.000000,0.000000,0.000000,0.000000,0.000000,0.000000,0.000000,0.000000,0.000000,0.050000,0.050000,0.050000,0.050000,0.050000,0.050000,0.050000,0.050000,0.000000,0.000000,0.000000,0.000000,0.000000],[0.000000,0.000000,0.000000,0.000000,0.000000,0.000000,0.000000,0.000000,0.000000,0.000000,0.000000,0.000000,0.000000,0.000000,0.000000,0.000000,0.000000,0.050000,0.050000,0.050000,0.050000,0.050000,0.050000,0.050000,0.050000,0.000000,0.000000,0.000000,0.000000,0.000000],[0.000000,0.000000,0.000000,0.000000,0.000000,0.000000,0.000000,0.000000,0.000000,0.000000,0.000000,0.000000,0.000000,0.000000,0.000000,0.000000,0.000000,0.050000,0.050000,0.050000,0.050000,0.050000,0.050000,0.050000,0.050000,0.000000,0.000000,0.000000,0.000000,0.000000],[0.000000,0.000000,0.000000,0.000000,0.000000,0.000000,0.000000,0.000000,0.000000,0.000000,0.000000,0.000000,0.000000,0.000000,0.000000,0.000000,0.000000,0.050000,0.050000,0.050000,0.050000,0.050000,0.050000,0.050000,0.050000,0.000000,0.000000,0.000000,0.000000,0.000000],[0.000000,0.000000,0.000000,0.000000,0.000000,0.000000,0.000000,0.000000,0.000000,0.000000,0.000000,0.000000,0.000000,0.000000,0.000000,0.000000,0.000000,0.050000,0.050000,0.050000,0.050000,0.050000,0.050000,0.050000,0.050000,0.000000,0.000000,0.000000,0.000000,0.000000]];
Cp=[[0.365000,0.750000,0.750000,0.750000,0.750000,0.750000,0.750000,0.750000,0.750000,0.750000,0.750000,0.750000,0.750000,0.750000,0.750000,0.750000,0.750000,0.750000,0.750000,0.750000,0.750000,0.750000,0.750000,0.750000,0.750000,0.000000,0.000000,0.000000,0.000000,0.000000],[0.365000,0.750000,0.750000,0.750000,0.750000,0.750000,0.750000,0.750000,0.750000,0.750000,0.750000,0.750000,0.750000,0.750000,0.750000,0.750000,0.750000,0.750000,0.750000,0.750000,0.750000,0.750000,0.750000,0.750000,0.750000,0.000000,0.000000,0.000000,0.000000,0.000000],[0.365000,0.750000,0.750000,0.750000,0.750000,0.750000,0.750000,0.750000,0.750000,0.750000,0.750000,0.125000,0.125000,0.125000,0.125000,0.125000,0.125000,0.125000,0.125000,0.125000,0.750000,0.750000,0.750000,0.750000,0.750000,0.000000,0.000000,0.000000,0.000000,0.000000],[0.365000,0.750000,0.750000,0.750000,0.750000,0.750000,0.750000,0.750000,0.750000,0.750000,0.750000,0.125000,0.125000,0.125000,0.125000,0.125000,0.125000,0.125000,0.125000,0.125000,0.750000,0.750000,0.750000,0.750000,0.750000,0.000000,0.000000,0.000000,0.000000,0.000000],[0.365000,0.750000,0.750000,0.750000,0.750000,0.750000,0.750000,0.750000,0.750000,0.750000,0.750000,0.125000,0.125000,0.125000,0.125000,0.125000,0.125000,0.125000,0.125000,0.125000,0.750000,0.750000,0.750000,0.750000,0.750000,0.000000,0.000000,0.000000,0.000000,0.000000],[0.365000,0.750000,0.750000,0.750000,0.750000,0.750000,0.750000,0.750000,0.750000,0.750000,0.750000,0.750000,0.750000,0.750000,0.750000,0.750000,0.750000,0.750000,0.750000,0.750000,0.750000,0.750000,0.750000,0.750000,0.750000,0.000000,0.000000,0.000000,0.000000,0.000000],[0.365000,0.750000,0.750000,0.750000,0.750000,0.750000,0.750000,0.750000,0.750000,0.670000,0.670000,0.670000,0.670000,0.670000,0.670000,0.670000,0.670000,0.670000,0.750000,0.750000,0.750000,0.750000,0.750000,0.750000,0.750000,0.000000,0.000000,0.000000,0.000000,0.000000],[0.365000,0.750000,0.750000,0.750000,0.750000,0.750000,0.750000,0.750000,0.750000,0.670000,0.670000,0.670000,0.670000,0.670000,0.670000,0.670000,0.670000,0.670000,0.750000,0.750000,0.750000,0.750000,0.750000,0.750000,0.750000,0.000000,0.000000,0.000000,0.000000,0.000000],[0.365000,0.750000,0.750000,0.750000,0.750000,0.750000,0.750000,0.750000,0.750000,0.670000,0.670000,0.670000,0.670000,0.670000,0.670000,0.670000,0.670000,0.670000,0.750000,0.750000,0.750000,0.500000,0.500000,0.500000,0.750000,0.000000,0.000000,0.000000,0.000000,0.000000],[0.365000,0.750000,0.750000,0.750000,0.750000,0.750000,0.750000,0.750000,0.750000,0.670000,0.670000,0.670000,0.670000,0.670000,0.670000,0.670000,0.670000,0.670000,0.750000,0.750000,0.750000,0.500000,0.500000,0.500000,0.750000,0.000000,0.000000,0.000000,0.000000,0.000000],[0.365000,0.750000,0.750000,0.750000,0.750000,0.750000,0.750000,0.750000,0.750000,0.670000,0.670000,0.670000,0.670000,0.670000,0.670000,0.670000,0.670000,0.670000,0.750000,0.750000,0.750000,0.500000,0.500000,0.500000,0.750000,0.000000,0.000000,0.000000,0.000000,0.000000],[0.365000,0.750000,0.750000,0.750000,0.750000,0.750000,0.750000,0.750000,0.750000,0.750000,0.750000,0.750000,0.750000,0.750000,0.750000,0.750000,0.750000,0.750000,0.750000,0.750000,0.750000,0.500000,0.500000,0.500000,0.750000,0.000000,0.000000,0.000000,0.000000,0.000000],[0.365000,0.750000,0.750000,0.750000,0.750000,0.750000,0.750000,0.750000,0.750000,0.750000,0.750000,0.750000,0.750000,0.750000,0.750000,0.750000,0.750000,0.750000,0.750000,0.750000,0.750000,0.500000,0.500000,0.500000,0.750000,0.000000,0.000000,0.000000,0.000000,0.000000],[1500.000000,0.750000,0.750000,0.750000,0.750000,0.750000,0.750000,0.750000,0.750000,0.750000,0.750000,0.750000,0.750000,0.750000,0.750000,0.750000,0.750000,0.750000,0.750000,0.750000,0.750000,0.500000,0.500000,0.500000,0.750000,0.000000,0.000000,0.000000,0.000000,0.000000],[1500.000000,0.750000,0.750000,0.750000,0.750000,0.750000,0.750000,0.750000,0.750000,0.750000,0.750000,0.750000,0.750000,0.750000,0.750000,0.750000,0.750000,0.750000,0.750000,0.750000,0.750000,0.500000,0.500000,0.500000,0.750000,0.000000,0.000000,0.000000,0.000000,0.000000],[1500.000000,0.750000,0.750000,0.750000,0.750000,0.750000,0.750000,0.750000,0.750000,0.750000,0.750000,0.750000,0.750000,0.750000,0.750000,0.750000,0.750000,0.750000,0.750000,0.750000,0.750000,0.750000,0.750000,0.750000,0.750000,0.000000,0.000000,0.000000,0.000000,0.000000],[1500.000000,0.750000,0.750000,0.750000,0.750000,0.750000,0.750000,0.750000,0.750000,0.750000,0.750000,0.750000,0.750000,0.750000,0.750000,0.750000,0.750000,0.750000,0.750000,0.750000,0.750000,0.750000,0.750000,0.750000,0.750000,0.000000,0.000000,0.000000,0.000000,0.000000],[1500.000000,0.750000,0.750000,0.750000,0.750000,0.750000,0.750000,0.750000,0.750000,0.750000,0.750000,0.750000,0.750000,0.750000,0.750000,0.750000,0.750000,0.750000,0.750000,0.750000,0.750000,0.750000,0.750000,0.750000,0.750000,0.000000,0.000000,0.000000,0.000000,0.000000],[1500.000000,0.750000,0.750000,0.750000,0.750000,0.750000,0.750000,0.750000,0.750000,0.750000,0.750000,0.750000,0.750000,0.750000,0.750000,0.750000,0.750000,0.750000,0.750000,0.750000,0.750000,0.750000,0.750000,0.750000,0.750000,0.000000,0.000000,0.000000,0.000000,0.000000],[1500.000000,1500.000000,1500.000000,1500.000000,1500.000000,1500.000000,1500.000000,1500.000000,1500.000000,1500.000000,1500.000000,1500.000000,1500.000000,1500.000000,1500.000000,1500.000000,1500.000000,0.750000,0.750000,0.750000,0.750000,0.750000,0.750000,0.750000,0.750000,0.000000,0.000000,0.000000,0.000000,0.000000],[1500.000000,1500.000000,1500.000000,1500.000000,1500.000000,1500.000000,1500.000000,1500.000000,1500.000000,1500.000000,1500.000000,1500.000000,1500.000000,1500.000000,1500.000000,1500.000000,1500.000000,0.750000,0.750000,0.750000,0.750000,0.750000,0.750000,0.750000,0.750000,0.000000,0.000000,0.000000,0.000000,0.000000],[1500.000000,1500.000000,1500.000000,1500.000000,1500.000000,1500.000000,1500.000000,1500.000000,1500.000000,1500.000000,1500.000000,1500.000000,1500.000000,1500.000000,1500.000000,1500.000000,1500.000000,0.750000,0.750000,0.750000,0.750000,0.750000,0.750000,0.750000,0.750000,0.000000,0.000000,0.000000,0.000000,0.000000],[1500.000000,1500.000000,1500.000000,1500.000000,1500.000000,1500.000000,1500.000000,1500.000000,1500.000000,1500.000000,1500.000000,1500.000000,1500.000000,1500.000000,1500.000000,1500.000000,1500.000000,0.750000,0.750000,0.750000,0.750000,0.750000,0.750000,0.750000,0.750000,0.000000,0.000000,0.000000,0.000000,0.000000],[1500.000000,1500.000000,1500.000000,1500.000000,1500.000000,1500.000000,1500.000000,1500.000000,1500.000000,1500.000000,1500.000000,1500.000000,1500.000000,1500.000000,1500.000000,1500.000000,1500.000000,0.750000,0.750000,0.750000,0.750000,0.750000,0.750000,0.750000,0.750000,0.000000,0.000000,0.000000,0.000000,0.000000],[1500.000000,1500.000000,1500.000000,1500.000000,1500.000000,1500.000000,1500.000000,1500.000000,1500.000000,1500.000000,1500.000000,1500.000000,1500.000000,1500.000000,1500.000000,1500.000000,1500.000000,0.750000,0.750000,0.750000,0.750000,0.750000,0.750000,0.750000,0.750000,0.000000,0.000000,0.000000,0.000000,0.000000]];
